SDVRP instances/custom_instances/p02_30_splitx10_0.vrp
NAME:p02_30_splitx10_
BEST_KNOWN: 0
COMMENT: 0
DIMENSION: 357
CAPACITY: 1400
EDGE_WEIGHT_FORMAT: FUNCTION
EDGE_WEIGHT_TYPE: EXACT_2D
NODE_COORD_SECTION
1 0.00000 0.00000
2 -28 32
3 -28 32
4 -28 32
5 -28 32
6 -28 32
7 -28 32
8 -28 32
9 27 -28
10 27 -28
11 27 -28
12 5 -7
13 5 -7
14 5 -7
15 5 -7
16 -42 10
17 -42 10
18 -42 10
19 -42 10
20 -42 10
21 -41 -3
22 -41 -3
23 -41 -3
24 -41 -3
25 -41 -3
26 -37 4
27 -37 4
28 -37 4
29 -37 4
30 -37 4
31 -6 9
32 -6 9
33 -6 9
34 -6 9
35 -6 9
36 -6 9
37 -6 9
38 27 3
39 27 3
40 27 3
41 27 3
42 27 3
43 27 3
44 -18 -8
45 -18 -8
46 -18 -8
47 -18 -8
48 -41 -35
49 -41 -35
50 -41 -35
51 -41 -35
52 -41 -35
53 -41 -35
54 8 2
55 8 2
56 8 2
57 8 2
58 8 2
59 -33 0
60 -33 0
61 -33 0
62 -33 0
63 -33 0
64 -46 22
65 -46 22
66 -46 22
67 -46 22
68 -46 22
69 -37 -48
70 -37 -48
71 -37 -48
72 -37 -48
73 -37 -48
74 -37 -48
75 -37 -48
76 49 -7
77 49 -7
78 -28 -42
79 -28 -42
80 -28 -42
81 -34 -11
82 -34 -11
83 -34 -11
84 45 35
85 45 35
86 -13 14
87 -13 14
88 -13 14
89 -13 14
90 -13 14
91 -13 14
92 -40 6
93 -40 6
94 -40 6
95 -40 6
96 -40 6
97 -40 6
98 -40 6
99 13 -23
100 13 -23
101 13 -23
102 2 19
103 2 19
104 2 19
105 2 19
106 -10 -30
107 -10 -30
108 -10 -30
109 -10 -30
110 -10 -30
111 29 28
112 29 28
113 36 37
114 36 37
115 36 37
116 36 37
117 36 37
118 16 -50
119 16 -50
120 16 -50
121 16 -50
122 16 -50
123 16 -50
124 16 -50
125 16 -50
126 48 23
127 48 23
128 48 23
129 48 23
130 48 23
131 17 28
132 17 28
133 17 28
134 17 28
135 -32 -38
136 -32 -38
137 -32 -38
138 27 -3
139 27 -3
140 27 -3
141 27 -3
142 10 -45
143 10 -45
144 10 -45
145 10 -45
146 10 -45
147 10 -45
148 22 -38
149 22 -38
150 22 -38
151 22 -38
152 -35 39
153 -35 39
154 -35 39
155 -35 39
156 -35 39
157 -35 39
158 -35 39
159 10 20
160 10 20
161 -21 32
162 -21 32
163 -9 33
164 -9 33
165 -9 33
166 -9 33
167 -17 13
168 -17 13
169 -17 13
170 -17 13
171 -4 -48
172 -4 -48
173 -4 -48
174 8 -27
175 8 -27
176 8 -27
177 8 -27
178 19 -45
179 19 -45
180 19 -45
181 19 -45
182 19 -45
183 19 -45
184 19 -45
185 -13 24
186 -13 24
187 -13 24
188 -13 24
189 -13 24
190 -13 24
191 -44 0
192 -44 0
193 -44 0
194 -44 0
195 50 -33
196 50 -33
197 50 -33
198 50 -33
199 50 -33
200 50 -33
201 50 -33
202 -38 19
203 -38 19
204 -38 19
205 -38 19
206 -38 19
207 -38 19
208 -38 19
209 18 -7
210 18 -7
211 18 -7
212 18 -7
213 18 -7
214 -33 -6
215 -33 -6
216 -33 -6
217 -33 -6
218 27 -44
219 27 -44
220 27 -44
221 27 -44
222 27 -44
223 27 -44
224 -24 -20
225 -24 -20
226 -24 -20
227 -24 -20
228 -24 -20
229 38 20
230 38 20
231 38 20
232 -1 -10
233 -1 -10
234 -1 -10
235 45 3
236 45 3
237 45 3
238 45 3
239 45 3
240 45 3
241 45 3
242 45 3
243 -30 36
244 -30 36
245 -30 36
246 -37 26
247 -37 26
248 -37 26
249 -48 49
250 -48 49
251 -48 49
252 -48 49
253 -48 49
254 -24 18
255 -24 18
256 -24 18
257 -24 18
258 16 23
259 16 23
260 16 23
261 16 23
262 16 23
263 38 -49
264 38 -49
265 38 -49
266 38 -49
267 38 -49
268 38 -49
269 8 28
270 8 28
271 8 28
272 8 28
273 30 35
274 30 35
275 30 35
276 30 35
277 -2 -23
278 -2 -23
279 -2 -23
280 -2 -23
281 -2 -23
282 22 -23
283 22 -23
284 22 -23
285 22 -23
286 22 -23
287 -39 0
288 -39 0
289 -39 0
290 -39 0
291 11 38
292 11 38
293 11 38
294 11 38
295 13 -41
296 13 -41
297 13 -41
298 13 -41
299 13 -41
300 13 -41
301 18 -35
302 18 -35
303 18 -35
304 18 -35
305 18 -35
306 18 -35
307 18 -35
308 18 -35
309 5 -22
310 5 -22
311 5 -22
312 5 -22
313 5 -22
314 5 -22
315 5 -22
316 5 -22
317 23 41
318 23 41
319 23 41
320 23 41
321 -26 31
322 -26 31
323 -26 31
324 -26 31
325 -26 31
326 -26 31
327 -26 31
328 -26 31
329 19 -25
330 19 -25
331 19 -25
332 -19 -2
333 -19 -2
334 -19 -2
335 -19 -2
336 12 -26
337 12 -26
338 12 -26
339 -46 4
340 -46 4
341 -46 4
342 -46 4
343 -46 4
344 -37 15
345 -37 15
346 -37 15
347 -37 15
348 -37 15
349 -37 15
350 37 -35
351 37 -35
352 37 -35
353 37 -35
354 -13 -45
355 -13 -45
356 -13 -45
357 -13 -45
DEMAND_SECTION
1 0
2 280
3 280
4 70
5 14
6 14
7 14
8 8
9 280
10 280
11 140
12 280
13 70
14 14
15 6
16 140
17 70
18 14
19 14
20 2
21 280
22 280
23 14
24 14
25 12
26 280
27 70
28 14
29 14
30 2
31 140
32 70
33 14
34 14
35 14
36 14
37 4
38 280
39 140
40 14
41 14
42 14
43 8
44 140
45 70
46 14
47 6
48 140
49 14
50 14
51 14
52 14
53 4
54 280
55 140
56 70
57 14
58 6
59 280
60 70
61 14
62 14
63 2
64 280
65 280
66 14
67 14
68 12
69 280
70 70
71 14
72 14
73 14
74 14
75 4
76 140
77 70
78 280
79 280
80 140
81 280
82 70
83 10
84 280
85 10
86 280
87 280
88 70
89 14
90 14
91 2
92 280
93 70
94 14
95 14
96 14
97 14
98 4
99 280
100 140
101 70
102 280
103 140
104 14
105 6
106 140
107 14
108 14
109 14
110 8
111 140
112 70
113 280
114 140
115 14
116 14
117 12
118 280
119 280
120 70
121 14
122 14
123 14
124 14
125 4
126 280
127 280
128 14
129 14
130 2
131 280
132 280
133 70
134 10
135 280
136 280
137 140
138 280
139 280
140 14
141 6
142 280
143 140
144 14
145 14
146 14
147 8
148 280
149 280
150 14
151 6
152 280
153 140
154 70
155 14
156 14
157 14
158 8
159 280
160 10
161 280
162 70
163 280
164 140
165 14
166 6
167 140
168 70
169 14
170 6
171 280
172 70
173 10
174 280
175 280
176 70
177 10
178 280
179 140
180 14
181 14
182 14
183 14
184 4
185 140
186 70
187 14
188 14
189 14
190 8
191 140
192 14
193 14
194 12
195 280
196 280
197 14
198 14
199 14
200 14
201 4
202 280
203 280
204 14
205 14
206 14
207 14
208 4
209 280
210 14
211 14
212 14
213 8
214 280
215 280
216 70
217 10
218 280
219 280
220 14
221 14
222 14
223 8
224 280
225 140
226 14
227 14
228 12
229 280
230 14
231 6
232 140
233 70
234 10
235 280
236 280
237 70
238 14
239 14
240 14
241 14
242 4
243 280
244 280
245 140
246 280
247 280
248 140
249 280
250 140
251 70
252 14
253 6
254 280
255 140
256 14
257 6
258 140
259 70
260 14
261 14
262 2
263 140
264 14
265 14
266 14
267 14
268 4
269 280
270 140
271 70
272 10
273 140
274 14
275 14
276 12
277 280
278 140
279 70
280 14
281 6
282 280
283 70
284 14
285 14
286 2
287 280
288 280
289 14
290 6
291 140
292 70
293 14
294 6
295 280
296 140
297 70
298 14
299 14
300 2
301 280
302 140
303 70
304 14
305 14
306 14
307 14
308 4
309 280
310 280
311 70
312 14
313 14
314 14
315 14
316 4
317 280
318 14
319 14
320 2
321 280
322 140
323 70
324 14
325 14
326 14
327 14
328 4
329 280
330 140
331 10
332 140
333 14
334 14
335 2
336 280
337 140
338 10
339 280
340 280
341 14
342 14
343 2
344 280
345 280
346 14
347 14
348 14
349 8
350 140
351 70
352 14
353 6
354 280
355 280
356 70
357 10
DEPOT_SECTION
1
-1
EOF