SDVRP instances/custom_instances/p02_30_splitx10_0.sol
356 -12 14 330 328 329 10 8 9 283 282 284 285 -13 11 314 315 311 312 313 308 310 309 280 278 276 -22 21 20 23 24 193 192 190 191 341 339 342 340 338 -28 26 27 29 25 287 289 286 288 62 59 58 60 61 -30 36 320 326 322 321 325 323 324 5 1 6 4 7 2 3 90 88 89 -31 35 160 161 242 243 154 155 157 156 153 151 -34 33 32 187 185 188 184 189 186 163 162 165 164 270 268 271 158 159 -45 44 43 46 80 81 82 216 214 215 213 331 334 332 333 -49 47 48 51 50 52 74 70 69 68 71 73 72 78 79 77 -53 54 55 137 140 139 138 210 211 208 212 209 -57 56 42 41 37 40 39 38 238 241 237 239 236 240 234 235 75 76 -64 63 66 67 65 252 251 250 248 249 152 244 327 -87 85 86 254 253 167 169 166 168 -93 95 97 94 96 91 92 15 18 16 17 19 344 343 348 346 347 345 -99 98 337 335 176 173 174 175 -100 148 147 150 149 307 304 305 302 300 301 303 306 336 -103 101 102 104 131 133 130 132 261 258 260 257 259 -106 107 105 109 108 355 354 356 353 171 172 170 279 277 -111 110 84 83 129 128 125 126 127 229 230 228 -142 146 143 141 145 144 124 117 118 123 119 122 121 120 295 296 298 299 297 -194 196 198 199 197 195 200 265 262 263 266 264 267 350 349 352 351 281 -202 205 207 206 204 203 201 246 245 247 255 256 -218 217 221 222 219 220 180 181 177 183 178 182 179 294 -225 227 226 224 223 134 136 135 231 233 232 -269 293 291 292 290 316 318 319 317 113 115 112 114 116 273 272 274 275 0 





OBJ=
2377.423
BEST_KNOWN=
0.000